1196.00 0
0 17 132 112 125 111 124 123 122 110 69 70 68 133 78 64 77 0 
0 46 118 18 81 126 127 128 129 113 121 116 131 117 119 130 65 19 0 
0 115 114 106 107 108 109 120 0 
0 73 74 76 134 32 48 61 31 30 28 26 24 22 0 
0 23 59 58 57 105 98 37 95 40 43 44 3 41 42 2 4 5 6 7 8 9 10 12 11 14 88 15 13 16 27 25 21 91 0 
0 60 54 103 104 100 99 36 35 101 102 53 51 50 49 34 63 79 67 33 80 71 66 0 
0 82 20 83 84 85 86 87 89 90 92 29 93 94 45 39 38 96 97 56 55 52 62 1 75 47 72 0 
